db/data/270711586229413118176789434267221919.z3.out
sat
-------------------
313.538391214
